; --------------------------------------------------------------------------
; File     : ODRL304-1.smt2
; Domain   : ODRL Spatial Axis Profile
; Problem  : width ≤ 600 vs width ≥ 200: overlapping intervals
; Expected : sat
; Verdict  : Compatible
; Category : SingleAxis
;
; ODRL Policy (Turtle):
;   @prefix odrl: <http://www.w3.org/ns/odrl/2/> .
;   @prefix oax:  <http://w3id.org/odrl/spatial-axis#> .
;   @prefix ex:   <https://example.org/> .
;
;   ex:policyA a odrl:Set ;
;     odrl:permission [
;       odrl:action odrl:use ;
;       odrl:constraint [
;         odrl:leftOperand oax:absoluteSizeWidth ;
;         odrl:operator odrl:lteq ;
;         odrl:rightOperand "600"^^xsd:decimal ;
;         odrl:unit <http://dbpedia.org/resource/Pixel> ] ] .
;
;   ex:policyB a odrl:Set ;
;     odrl:permission [
;       odrl:action odrl:use ;
;       odrl:constraint [
;         odrl:leftOperand oax:absoluteSizeWidth ;
;         odrl:operator odrl:gteq ;
;         odrl:rightOperand "200"^^xsd:decimal ;
;         odrl:unit <http://dbpedia.org/resource/Pixel> ] ] .
;
; Gen      : gen_axis_suite.py
; --------------------------------------------------------------------------
(set-logic QF_LRA)
(declare-const x Real)

; --- Axis 1: width ---
(assert (> x 0))
; width: lteq 600  ∧  gteq 200
(assert (<= x 600))
(assert (>= x 200))

; Result: sat → Compatible
(check-sat)
(exit)
